data/solutions/recovery/degenerate/intermediate/binding/degenerate_intermediate_instance21/50.sol
Elapsed time: 0.03
Upper bound: inf
Planning weighted value: 1.00643995385e+11
C[0]=31552187.9994
C[1]=30896997.0
C[2]=30785232.0
C[3]=30614253.0
C[4]=29134804.0
C[5]=29006361.0
C[6]=25626271.0
C[7]=24529670.0
C[8]=24508615.0
C[9]=24344155.0006
C[10]=0.0
C[11]=0.0
y[0]=8
y[1]=2
y[2]=0
y[3]=1
y[4]=4
y[5]=1
y[6]=9
y[7]=3
y[8]=0
y[9]=0
y[10]=4
y[11]=1
y[12]=0
y[13]=0
y[14]=5
y[15]=1
y[16]=7
y[17]=0
y[18]=8
y[19]=2
y[20]=5
y[21]=9
y[22]=7
y[23]=9
y[24]=4
y[25]=0
y[26]=8
y[27]=0
y[28]=0
y[29]=5
y[30]=3
y[31]=0
y[32]=6
y[33]=2
y[34]=5
y[35]=7
y[36]=2
y[37]=6
y[38]=1
y[39]=0
y[40]=4
y[41]=8
y[42]=6
y[43]=3
y[44]=5
y[45]=9
y[46]=2
y[47]=0
y[48]=1
y[49]=9
y[50]=4
y[51]=2
y[52]=4
y[53]=8
y[54]=3
y[55]=6
y[56]=6
y[57]=3
y[58]=0
y[59]=7
y[60]=4
y[61]=2
y[62]=9
y[63]=7
y[64]=3
