data/solutions/recovery/degenerate/intermediate/binding/degenerate_intermediate_instance21/50.log

Log started (V12.6.3.0) Sun Apr 22 12:29:06 2018

New value for default parallel thread count: 1

Problem '/tmp/tmp9Las8J.pyomo.lp' read.
Read time = 0.01 sec. (0.58 ticks)

Problem name         : /tmp/tmp9Las8J.pyomo.lp
Objective sense      : Minimize
Variables            :     794  [Nneg: 1,  Binary: 780,  General Integer: 13]
Objective nonzeros   :       1
Linear constraints   :     157  [Less: 77,  Equal: 80]
  Nonzeros           :   41731
  RHS nonzeros       :      66

Variables            : Min LB: 0.000000         Max UB: 1.000000       
Objective nonzeros   : Min   : 1.000000         Max   : 1.000000       
Linear constraints   :
  Nonzeros           : Min   : 1.000000         Max   : 8298339.       
  RHS nonzeros       : Min   : 1.000000         Max   : 1.000000       
Tried aggregator 2 times.
MIP Presolve eliminated 130 rows and 713 columns.
Aggregator did 10 substitutions.
Reduced MIP has 17 rows, 71 columns, and 150 nonzeros.
Reduced MIP has 70 binaries, 1 generals, 0 SOSs, and 0 indicators.
Presolve time = 0.00 sec. (2.88 ticks)
Found incumbent of value 6.9008352e+07 after 0.00 sec. (3.91 ticks)
Probing time = 0.00 sec. (0.07 ticks)
Tried aggregator 1 time.
Reduced MIP has 17 rows, 71 columns, and 150 nonzeros.
Reduced MIP has 70 binaries, 1 generals, 0 SOSs, and 0 indicators.
Presolve time = 0.00 sec. (0.10 ticks)
Probing time = 0.00 sec. (0.07 ticks)
Clique table members: 7.
MIP emphasis: balance optimality and feasibility.
MIP search method: dynamic search.
Parallel mode: none, using 1 thread.
Root relaxation solution time = 0.00 sec. (0.07 ticks)

        Nodes                                         Cuts/
   Node  Left     Objective  IInf  Best Integer    Best Bound    ItCnt     Gap

*     0+    0                       6.90084e+07   3.08970e+07            55.23%
      0     0   3.08970e+07     9   6.90084e+07   3.08970e+07       19   55.23%
*     0+    0                       3.25741e+07   3.08970e+07             5.15%
      0     0   3.08970e+07     6   3.25741e+07       Cuts: 6       30    5.15%
*     0+    0                       3.19140e+07   3.08970e+07             3.19%
      0     0   3.08970e+07     6   3.19140e+07       Cuts: 5       36    3.19%
*     0+    0                       3.18615e+07   3.08970e+07             3.03%
*     0+    0                       3.15522e+07   3.08970e+07             2.08%
      0     0        cutoff         3.15522e+07   3.08970e+07       36    2.08%
Elapsed time = 0.01 sec. (4.93 ticks, tree = 0.01 MB, solutions = 5)

Clique cuts applied:  1
Implied bound cuts applied:  2
Mixed integer rounding cuts applied:  3
Gomory fractional cuts applied:  2
Warning: integer solution contains unscaled infeasibilities.

Root node processing (before b&c):
  Real time             =    0.01 sec. (4.98 ticks)
Sequential b&c:
  Real time             =    0.00 sec. (0.00 ticks)
                          ------------
Total (root+branch&cut) =    0.01 sec. (4.98 ticks)

Solution pool: 5 solutions saved.

Maximum unscaled integer infeasibility = 0.000585202.
MIP - Integer optimal with unscaled infeasibilities:  Objective =  3.1552188000e+07
Solution time =    0.01 sec.  Iterations = 36  Nodes = 0
Deterministic time = 4.98 ticks  (740.83 ticks/sec)


Incumbent solution written to file '/tmp/tmpBSx4I0.cplex.sol'.
